26
40         50          0          0       1236          0
45         68         10        912        967         90
45         70         30        825        870         90
42         66         10         65        146         90
42         68         10        727        782         90
42         65         10         15         67         90
40         69         20        621        702         90
40         66         20        170        225         90
38         68         20        255        324         90
38         70         10        534        605         90
35         66         10        357        410         90
35         69         10        448        505         90
25         85         20        652        721         90
22         75         30         30         92         90
22         85         10        567        620         90
20         80         40        384        429         90
20         85         40        475        528         90
18         75         20         99        148         90
15         75         20        179        254         90
15         80         10        278        345         90
30         50         10         10         73         90
30         52         20        914        965         90
28         52         20        812        883         90
28         55         10        732        777         90
25         50         10         65        144         90
25         52         40        169        224         90
